1728
59209
7782
7968
184
18548
7473
57
119
9150
60857
802
135
1493
59389
3677
32708
2480
671
18174
31981
7651
4420
1653
7225
7970
1721
484
184
8216
31412
122
533
1717
3756
58667
311
701
346
1412
7235
4526
60695
97246
8767
1677
0
8986
593
32896
17424
804
3753
1898
1784
371
259
328
17344
1648
166
280
30657
1806
4219
16835
59034
6930
8297
31788
15561
1664
7534
58445
7528
1674
437
8347
32154
163
16383
16821
1775
25
4015
8498
33217
19684
4018
15252
16843
289512
17279
1008
85
3267
3333
152
868
242
